SLURM_JOB_ID: 55244239
SLURM_JOB_USER: vsc34888
SLURM_JOB_ACCOUNT: lp_elect_gen_modeling
SLURM_JOB_NAME: 3-bus_full_MILP
SLURM_CLUSTER_NAME: genius
SLURM_JOB_PARTITION: batch
SLURM_NNODES: 1
SLURM_NODELIST: r22i13n23
SLURM_JOB_CPUS_PER_NODE: 36
Date: Fri Sep 29 16:16:45 CEST 2023
Walltime: 03-00:00:00
========================================================================
Activation OK
Starting runs

 #### Academic research license - for non-commercial use only #### 

3-bus
/vsc-hard-mounts/leuven-data/348/vsc34888/JointResearch/05.Models/06.Benchmarking/A.The_full_year_MILP
gurobi
['oSN_Main_v2.py', '--case', '3-bus']
Namespace(case='3-bus', dir='/vsc-hard-mounts/leuven-data/348/vsc34888/JointResearch/05.Models/06.Benchmarking/A.The_full_year_MILP', solver='gurobi')
Namespace(case='3-bus', dir='/vsc-hard-mounts/leuven-data/348/vsc34888/JointResearch/05.Models/06.Benchmarking/A.The_full_year_MILP', solver='gurobi')
Reading    input data                 ...  0 s
Setting up input data                 ...  4 s
Generating objective function         ...  1 s
Generating operation & investment     ...  0 s
Generating balance                    ...  7 s
Generating storage operation          ...  0 s
Generating generation commitment      ...  2 s
Generating generation capacity        ...  0 s
Generating net P capacity bounds      ...  5 s
Generating net Q capacity bounds      ...  5 s
Generating net P constraints          ...  19 s
Generating net Q constraints          ...  20 s
Generating net voltage bounds         ...  0 s
Generating net non negative losses    ...  1 s
Generating net linear SOC2            ...  2 s
Generating net gshb injection         ...  0 s
Generating net bshb injection         ...  0 s
Econometric analysis  constraints     ...  0 s
Writing LP file                       ...  71 s
Set parameter Username
Set parameter TokenServer to value "SET-S-ME-LM3.luna.kuleuven.be"
Read LP format model from file /tmp/tmpl2jdh9q5.pyomo.lp
Reading time = 5.84 seconds
x1: 2140323 rows, 677969 columns, 6964438 nonzeros
Set parameter QCPDual to value 1
Set parameter LogFile to value "/vsc-hard-mounts/leuven-data/348/vsc34888/JointResearch/05.Models/06.Benchmarking/A.The_full_year_MILP/3-bus/openStarNet_3-bus.log"
Set parameter Method to value 2
Set parameter MIPFocus to value 1
Set parameter Presolve to value 2
Set parameter RINS to value 100
Set parameter MIPGap to value 0.01
Set parameter Threads to value 36
Set parameter TimeLimit to value 604800
Set parameter IterationLimit to value 760000000
Gurobi Optimizer version 9.5.0 build v9.5.0rc5 (linux64)
Thread count: 36 physical cores, 36 logical processors, using up to 36 threads
Optimize a model with 2140323 rows, 677969 columns and 6964438 nonzeros
Model fingerprint: 0x73207485
Variable types: 677960 continuous, 9 integer (9 binary)
Coefficient statistics:
  Matrix range     [9e-03, 4e+02]
  Objective range  [1e+00, 1e+00]
  Bounds range     [7e-06, 1e+00]
  RHS range        [7e-06, 1e+00]
Presolve removed 541635 rows and 78628 columns (presolve time = 5s) ...
Presolve removed 541635 rows and 78628 columns (presolve time = 10s) ...
Presolve removed 541635 rows and 78628 columns (presolve time = 15s) ...
Presolve removed 541635 rows and 78628 columns
Presolve time: 18.92s
Presolved: 1598688 rows, 599341 columns, 5771044 nonzeros
Variable types: 599332 continuous, 9 integer (9 binary)
Root relaxation presolve removed 0 rows and 0 columns (presolve time = 5s) ...
Root relaxation presolved: 1598688 rows, 599341 columns, 5771044 nonzeros

Root barrier log...

Ordering time: 0.55s

Barrier statistics:
 Dense cols : 9
 AA' NZ     : 2.192e+07
 Factor NZ  : 3.856e+07 (roughly 1.2 GB of memory)
 Factor Ops : 1.453e+09 (less than 1 second per iteration)
 Threads    : 35

                  Objective                Residual
Iter       Primal          Dual         Primal    Dual     Compl     Time
   0   6.76685994e+04 -9.08678163e+06  8.21e-01 2.25e+00  6.96e+00    35s
   1   2.06646004e+04 -1.20002164e+06  1.35e-01 3.50e-01  7.27e-01    35s
   2   7.50890563e+03 -2.75354397e+05  2.37e-03 2.69e-09  1.10e-01    36s
   3   9.41948679e+02 -1.14321565e+04  7.84e-05 2.23e-10  4.70e-03    37s
   4   3.98917589e+02 -9.07581571e+02  6.65e-08 1.83e-11  4.96e-04    38s
   5   2.44955998e+02 -9.76648330e+01  1.99e-08 9.52e-12  1.30e-04    39s
   6   1.76078010e+02  4.06211581e+01  7.10e-09 4.86e-12  5.14e-05    39s
   7   1.57068499e+02  9.78805620e+01  2.71e-09 8.19e-13  2.24e-05    40s
   8   1.50226396e+02  1.30725665e+02  1.33e-09 5.83e-13  7.39e-06    41s
   9   1.45113812e+02  1.39634723e+02  3.27e-10 4.48e-13  2.08e-06    42s
  10   1.44215624e+02  1.40930645e+02  1.67e-10 2.45e-13  1.24e-06    42s
  11   1.44195391e+02  1.41247182e+02  1.63e-10 5.26e-13  1.12e-06    43s
  12   1.44104426e+02  1.41406714e+02  1.45e-10 6.61e-13  1.02e-06    44s
  13   1.43994354e+02  1.41669128e+02  1.23e-10 2.11e-13  8.81e-07    44s
  14   1.43870688e+02  1.41847694e+02  1.00e-10 3.77e-13  7.67e-07    45s
  15   1.43842518e+02  1.41939155e+02  9.41e-11 5.26e-13  7.21e-07    46s
  16   1.43770878e+02  1.42394589e+02  1.13e-10 2.55e-13  5.21e-07    47s
  17   1.43667290e+02  1.42526956e+02  1.97e-10 5.29e-13  4.32e-07    48s
  18   1.43620757e+02  1.42586705e+02  1.76e-10 4.05e-13  3.92e-07    49s
  19   1.43609427e+02  1.42622813e+02  1.67e-10 2.97e-13  3.74e-07    50s
  20   1.43580302e+02  1.42717329e+02  1.45e-10 2.42e-13  3.27e-07    51s
  21   1.43570780e+02  1.42742142e+02  1.39e-10 3.12e-13  3.14e-07    52s
  22   1.43537589e+02  1.42865261e+02  1.24e-10 7.11e-13  2.55e-07    53s
  23   1.43516994e+02  1.42906046e+02  2.01e-10 5.51e-13  2.31e-07    54s
  24   1.43507534e+02  1.42922905e+02  1.65e-10 4.73e-13  2.22e-07    54s
  25   1.43486887e+02  1.42991271e+02  1.10e-10 4.21e-13  1.88e-07    55s
  26   1.43469489e+02  1.43019473e+02  4.18e-10 8.28e-13  1.71e-07    56s
  27   1.43458294e+02  1.43036690e+02  3.71e-10 4.67e-13  1.60e-07    57s
  28   1.43449472e+02  1.43059355e+02  3.26e-10 5.68e-13  1.48e-07    58s
  29   1.43441779e+02  1.43074871e+02  3.10e-10 2.50e-13  1.39e-07    59s
  30   1.43436621e+02  1.43085883e+02  2.89e-10 8.81e-13  1.33e-07    60s
  31   1.43429811e+02  1.43115215e+02  2.68e-10 8.46e-13  1.19e-07    61s
  32   1.43423134e+02  1.43122445e+02  3.16e-10 2.30e-13  1.14e-07    62s
  33   1.43407374e+02  1.43151187e+02  1.27e-09 3.41e-13  9.71e-08    63s
  34   1.43401652e+02  1.43159919e+02  1.12e-09 6.82e-13  9.16e-08    64s
  35   1.43394288e+02  1.43186504e+02  1.43e-09 3.38e-13  7.87e-08    65s
  36   1.43392382e+02  1.43191923e+02  1.33e-09 7.28e-13  7.60e-08    66s
  37   1.43390411e+02  1.43197701e+02  1.12e-09 3.80e-13  7.30e-08    67s
  38   1.43383604e+02  1.43203942e+02  1.14e-09 2.81e-13  6.81e-08    68s
  39   1.43383321e+02  1.43208219e+02  1.10e-09 6.36e-13  6.64e-08    69s
  40   1.43380517e+02  1.43219922e+02  9.81e-10 3.87e-13  6.09e-08    70s
  41   1.43377599e+02  1.43230341e+02  9.72e-10 5.90e-13  5.58e-08    71s
  42   1.43376676e+02  1.43232215e+02  9.08e-10 4.90e-13  5.47e-08    72s
  43   1.43374623e+02  1.43243390e+02  8.19e-10 4.19e-13  4.97e-08    73s
  44   1.43371651e+02  1.43245505e+02  1.36e-09 5.04e-13  4.78e-08    74s
  45   1.43370835e+02  1.43249298e+02  8.52e-10 3.27e-13  4.61e-08    75s
  46   1.43370086e+02  1.43251234e+02  7.59e-10 1.15e-13  4.50e-08    76s
  47   1.43367908e+02  1.43256378e+02  7.84e-10 2.49e-13  4.23e-08    77s
  48   1.43366071e+02  1.43262196e+02  3.63e-09 1.99e-13  3.94e-08    78s
  49   1.43365379e+02  1.43264089e+02  3.50e-09 3.04e-13  3.84e-08    79s
  50   1.43364639e+02  1.43265441e+02  3.36e-09 1.81e-13  3.76e-08    79s
  51   1.43363181e+02  1.43271769e+02  3.10e-09 1.78e-13  3.46e-08    81s
  52   1.43361627e+02  1.43276959e+02  5.00e-09 3.13e-13  3.21e-08    82s
  53   1.43361035e+02  1.43278494e+02  4.79e-09 1.35e-13  3.13e-08    83s
  54   1.43360151e+02  1.43280637e+02  4.85e-09 2.34e-13  3.01e-08    84s
  55   1.43359489e+02  1.43282122e+02  4.63e-09 2.03e-13  2.93e-08    85s
  56   1.43359122e+02  1.43286165e+02  4.46e-09 1.46e-13  2.76e-08    86s
  57   1.43358613e+02  1.43286908e+02  4.06e-09 3.20e-13  2.72e-08    87s
  58   1.43357512e+02  1.43289859e+02  4.90e-09 7.03e-13  2.56e-08    88s
  59   1.43355585e+02  1.43296119e+02  5.99e-09 3.23e-13  2.25e-08    89s
  60   1.43355444e+02  1.43296821e+02  5.89e-09 5.83e-13  2.22e-08    90s
  61   1.43354997e+02  1.43299788e+02  5.64e-09 2.34e-13  2.09e-08    91s
  62   1.43354120e+02  1.43301225e+02  5.10e-09 1.81e-13  2.00e-08    92s
  63   1.43353987e+02  1.43301727e+02  5.01e-09 2.31e-13  1.98e-08    93s
  64   1.43353544e+02  1.43302249e+02  4.74e-09 2.34e-13  1.94e-08    94s
  65   1.43353115e+02  1.43303787e+02  4.50e-09 1.19e-13  1.87e-08    95s
  66   1.43352892e+02  1.43304626e+02  4.37e-09 3.59e-13  1.83e-08    97s
  67   1.43352754e+02  1.43305970e+02  4.29e-09 4.62e-14  1.77e-08    98s
  68   1.43352322e+02  1.43307512e+02  4.06e-09 2.82e-13  1.70e-08    99s
  69   1.43352209e+02  1.43308234e+02  4.00e-09 2.06e-13  1.67e-08   100s
  70   1.43351433e+02  1.43309751e+02  3.54e-09 2.54e-13  1.58e-08   101s
  71   1.43351384e+02  1.43310968e+02  3.51e-09 3.34e-13  1.53e-08   102s
  72   1.43351062e+02  1.43313732e+02  3.34e-09 5.33e-13  1.41e-08   104s
  73   1.43350997e+02  1.43313937e+02  3.30e-09 3.52e-13  1.40e-08   105s
  74   1.43350843e+02  1.43314334e+02  3.22e-09 2.17e-13  1.38e-08   106s
  75   1.43350627e+02  1.43315442e+02  3.09e-09 7.64e-13  1.33e-08   107s
  76   1.43350285e+02  1.43316603e+02  2.89e-09 1.09e-12  1.28e-08   108s
  77   1.43350042e+02  1.43317454e+02  2.77e-09 6.39e-13  1.23e-08   110s
  78   1.43349629e+02  1.43317921e+02  2.53e-09 8.31e-13  1.20e-08   111s
  79   1.43349301e+02  1.43320031e+02  2.37e-09 4.90e-13  1.11e-08   112s
  80   1.43349154e+02  1.43321321e+02  2.28e-09 2.98e-13  1.05e-08   113s
  81   1.43349023e+02  1.43321753e+02  2.21e-09 4.51e-13  1.03e-08   115s
  82   1.43348742e+02  1.43322230e+02  2.06e-09 4.65e-13  1.00e-08   116s
  83   1.43348620e+02  1.43322681e+02  1.99e-09 3.23e-13  9.83e-09   117s
  84   1.43348541e+02  1.43323337e+02  1.95e-09 7.46e-13  9.55e-09   118s
  85   1.43348419e+02  1.43323951e+02  1.89e-09 3.91e-13  9.27e-09   120s
  86   1.43348177e+02  1.43324324e+02  1.76e-09 4.30e-13  9.04e-09   121s
  87   1.43347965e+02  1.43325746e+02  1.66e-09 3.84e-13  8.42e-09   122s
  88   1.43347801e+02  1.43326488e+02  1.56e-09 3.41e-13  8.08e-09   123s
  89   1.43347654e+02  1.43326785e+02  1.49e-09 1.60e-13  7.91e-09   125s
  90   1.43347561e+02  1.43328151e+02  1.44e-09 6.25e-13  7.35e-09   126s
  91   1.43347497e+02  1.43328244e+02  1.41e-09 7.82e-13  7.30e-09   128s
  92   1.43347394e+02  1.43328931e+02  1.36e-09 8.67e-13  7.00e-09   129s
  93   1.43347325e+02  1.43329298e+02  1.32e-09 4.26e-13  6.83e-09   131s
  94   1.43347286e+02  1.43329618e+02  1.30e-09 2.22e-13  6.69e-09   132s
  95   1.43347136e+02  1.43330001e+02  1.23e-09 9.24e-14  6.49e-09   133s
  96   1.43347059e+02  1.43330693e+02  1.19e-09 8.88e-14  6.20e-09   135s
  97   1.43346892e+02  1.43330831e+02  3.19e-09 3.62e-13  6.09e-09   138s
  98   1.43346655e+02  1.43331380e+02  2.89e-09 2.13e-13  5.79e-09   140s
  99   1.43346578e+02  1.43331841e+02  2.77e-09 3.53e-13  5.58e-09   141s
 100   1.43346530e+02  1.43332427e+02  2.71e-09 1.90e-13  5.34e-09   142s
 101   1.43346485e+02  1.43332552e+02  2.63e-09 3.45e-13  5.28e-09   143s
 102   1.43346375e+02  1.43333258e+02  2.48e-09 1.71e-13  4.97e-09   145s
 103   1.43346329e+02  1.43333767e+02  2.42e-09 2.24e-13  4.76e-09   146s
 104   1.43346234e+02  1.43333967e+02  1.65e-08 2.59e-13  4.65e-09   150s
 105   1.43346166e+02  1.43335002e+02  1.58e-08 7.32e-13  4.23e-09   151s
 106   1.43345976e+02  1.43335283e+02  1.44e-08 1.35e-13  4.05e-09   153s
 107   1.43345938e+02  1.43335481e+02  1.40e-08 6.18e-13  3.96e-09   154s
 108   1.43345905e+02  1.43335556e+02  1.37e-08 2.13e-13  3.92e-09   155s
 109   1.43345857e+02  1.43335913e+02  1.33e-08 3.55e-13  3.77e-09   157s
 110   1.43345790e+02  1.43336188e+02  1.27e-08 9.77e-14  3.64e-09   158s
 111   1.43345724e+02  1.43336895e+02  1.21e-08 4.23e-13  3.35e-09   160s
 112   1.43345646e+02  1.43337197e+02  1.13e-08 4.05e-13  3.20e-09   161s
 113   1.43345509e+02  1.43337397e+02  1.01e-08 2.17e-13  3.07e-09   162s
 114   1.43345485e+02  1.43338222e+02  9.88e-09 1.56e-13  2.75e-09   163s
 115   1.43345385e+02  1.43338353e+02  8.93e-09 1.60e-13  2.66e-09   164s
 116   1.43345367e+02  1.43338606e+02  8.77e-09 1.94e-13  2.56e-09   166s
 117   1.43345177e+02  1.43338815e+02  6.87e-09 1.78e-13  2.41e-09   167s
 118   1.43345095e+02  1.43339500e+02  6.18e-09 2.77e-13  2.12e-09   169s
 119   1.43345010e+02  1.43339767e+02  5.42e-09 2.95e-13  1.99e-09   170s
 120   1.43344895e+02  1.43340255e+02  4.44e-09 7.99e-14  1.76e-09   171s
 121   1.43344822e+02  1.43340801e+02  3.80e-09 8.88e-14  1.52e-09   173s
 122   1.43344808e+02  1.43341318e+02  3.68e-09 5.33e-13  1.32e-09   175s
 123   1.43344777e+02  1.43341381e+02  3.42e-09 3.55e-13  1.29e-09   176s
 124   1.43344748e+02  1.43341699e+02  3.18e-09 3.62e-13  1.16e-09   178s
 125   1.43344703e+02  1.43341853e+02  2.79e-09 4.33e-13  1.08e-09   180s
 126   1.43344663e+02  1.43342287e+02  2.45e-09 1.79e-13  9.00e-10   182s
 127   1.43344603e+02  1.43342510e+02  1.95e-09 3.52e-13  7.93e-10   185s
 128   1.43344568e+02  1.43342756e+02  1.67e-09 4.17e-13  6.86e-10   187s
 129   1.43344505e+02  1.43342949e+02  1.15e-09 4.97e-13  5.90e-10   188s
 130   1.43344496e+02  1.43343512e+02  1.07e-09 5.06e-14  3.73e-10   190s
 131   1.43344493e+02  1.43343521e+02  1.15e-09 1.42e-13  3.69e-10   192s
 132   1.43344413e+02  1.43343788e+02  7.22e-10 3.20e-13  2.37e-10   194s
 133   1.43344409e+02  1.43344062e+02  6.98e-10 7.60e-13  1.32e-10   197s
 134   1.43344404e+02  1.43344161e+02  1.31e-09 4.48e-13  9.21e-11   199s
 135   1.43344381e+02  1.43344245e+02  7.60e-10 9.59e-14  5.15e-11   201s
 136   1.43344378e+02  1.43344287e+02  5.44e-10 5.33e-13  3.43e-11   203s
 137   1.43344376e+02  1.43344293e+02  5.53e-09 7.11e-13  3.16e-11   206s
 138   1.43344375e+02  1.43344300e+02  6.04e-08 1.25e-13  2.84e-11   207s
 139   1.43344374e+02  1.43344301e+02  1.43e-07 4.33e-13  2.75e-11   208s
 140   1.43344356e+02  1.43344335e+02  1.15e-07 5.19e-13  8.21e-12   210s
 141   1.43344355e+02  1.43344341e+02  4.53e-08 2.27e-13  5.27e-12   211s
 142   1.43344355e+02  1.43344341e+02  4.65e-08 1.56e-13  5.24e-12   212s
 143   1.43344355e+02  1.43344344e+02  4.55e-08 4.19e-13  4.11e-12   213s
 144   1.43344355e+02  1.43344348e+02  5.07e-08 8.17e-14  2.54e-12   214s
 145   1.43344354e+02  1.43344353e+02  3.54e-08 3.59e-13  6.17e-13   215s
 146   1.43344354e+02  1.43344353e+02  8.67e-08 4.26e-13  3.48e-13   216s

Barrier solved model in 146 iterations and 216.26 seconds (176.67 work units)
Optimal objective 1.43344354e+02


Root crossover log...

  129269 DPushes remaining with DInf 0.0000000e+00               217s
   21563 DPushes remaining with DInf 0.0000000e+00               220s
   17819 DPushes remaining with DInf 0.0000000e+00               226s
   13964 DPushes remaining with DInf 0.0000000e+00               233s
   13574 DPushes remaining with DInf 0.0000000e+00               237s
     957 DPushes remaining with DInf 0.0000000e+00               241s
       0 DPushes remaining with DInf 0.0000000e+00               243s

  158970 PPushes remaining with PInf 2.0954691e-03               243s
   35954 PPushes remaining with PInf 3.8628730e-04               245s
       0 PPushes remaining with PInf 7.5560749e-05               249s

  Push phase complete: Pinf 7.5560749e-05, Dinf 8.4689151e-01    249s


Root simplex log...

Iteration    Objective       Primal Inf.    Dual Inf.      Time
  245502    1.4334435e+02   0.000000e+00   8.468915e-01    250s
  245692    1.4334435e+02   0.000000e+00   1.907539e-01    256s
  245832    1.4334435e+02   0.000000e+00   1.305423e-01    261s
  245972    1.4334435e+02   0.000000e+00   8.741033e-02    267s
  246112    1.4334435e+02   0.000000e+00   3.949747e-02    272s
  246262    1.4334435e+02   0.000000e+00   2.603048e-02    277s
  246412    1.4334435e+02   0.000000e+00   1.988378e-02    283s
  247652    1.4334435e+02   0.000000e+00   2.570157e-04    286s
  247897    1.4334435e+02   0.000000e+00   0.000000e+00    291s
  247897    1.4334435e+02   0.000000e+00   0.000000e+00    294s

Root relaxation: objective 1.433444e+02, 247897 iterations, 269.00 seconds (364.36 work units)

    Nodes    |    Current Node    |     Objective Bounds      |     Work
 Expl Unexpl |  Obj  Depth IntInf | Incumbent    BestBd   Gap | It/Node Time

     0     0  143.34435    0    6          -  143.34435      -     -  295s
H    0     0                     175.6757161  143.34435  18.4%     -  315s
     0     0  143.34435    0    6  175.67572  143.34435  18.4%     -  474s
     0     2  143.34435    0    6  175.67572  143.34435  18.4%     - 12207s
     1     4  146.27619    1    7  175.67572  143.34436  18.4% 162549 19146s
     3     2  151.79833    2    6  175.67572  146.27627  16.7% 371907 23694s
     7     4  155.05264    3    5  175.67572  151.79834  13.6% 379222 25864s
     9     6  159.13506    4    4  175.67572  155.05266  11.7% 360555 29737s
    13     6  161.61905    5    4  175.67572  159.13522  9.42% 405565 35884s
    19     6  164.15960    6    2  175.67572  161.61929  8.00% 331822 36822s
    25     6  164.16931    7    2  175.67572  164.15960  6.56% 273321 38645s
    31     6  168.40781    8    1  175.67572  164.16931  6.55% 316067 38960s
    37     0     cutoff    9       175.67572  168.40809  4.14% 273844 38988s
*   38     0               9     174.6647492  168.40809  3.58% 267425 38988s
*   39     0               9     174.5685333  171.94125  1.51% 260980 38988s

Explored 43 nodes (10458866 simplex iterations) in 38988.54 seconds (84768.17 work units)
Thread count was 36 (of 36 available processors)

Solution count 3: 174.569 174.665 175.676 

Optimal solution found (tolerance 1.00e-02)
Warning: max constraint violation (3.4739e-06) exceeds tolerance
Best objective 1.745685333429e+02, best bound 1.745685333429e+02, gap 0.0000%
Termination condition:  optimal
# ==========================================================
# = Solver Results                                         =
# ==========================================================
# ----------------------------------------------------------
#   Problem Information
# ----------------------------------------------------------
Problem: 
- Name: x1
  Lower bound: 174.56853334294786
  Upper bound: 174.56853334294786
  Number of objectives: 1
  Number of constraints: 2140323
  Number of variables: 677969
  Number of binary variables: 9
  Number of integer variables: 9
  Number of continuous variables: 677960
  Number of nonzeros: 6964438
  Sense: minimize
# ----------------------------------------------------------
#   Solver Information
# ----------------------------------------------------------
Solver: 
- Status: ok
  Return code: 0
  Message: Model was solved to optimality (subject to tolerances), and an optimal solution is available.
  Termination condition: optimal
  Termination message: Model was solved to optimality (subject to tolerances), and an optimal solution is available.
  Wall time: 38988.571502923965
  Error rc: 0
  Time: 39000.240736961365
# ----------------------------------------------------------
#   Solution Information
# ----------------------------------------------------------
Solution: 
- number of solutions: 0
  number of solutions displayed: 0
# ============================================================================= #
# ============================================================================= #
fixing: vNetworkInvest[2030,Node_1,Node_3,cac1]
fixing: vNetworkInvest[2030,Node_1,Node_2,cac3]
fixing: vNetworkInvest[2030,Node_1,Node_2,cac2]
fixing: vNetworkInvest[2030,Node_1,Node_2,cac1]
fixing: vNetworkInvest[2030,Node_2,Node_3,cac1]
fixing: vNetworkInvest[2030,Node_2,Node_3,cac3]
fixing: vNetworkInvest[2030,Node_1,Node_3,cac3]
fixing: vNetworkInvest[2030,Node_2,Node_3,cac2]
fixing: vNetworkInvest[2030,Node_1,Node_3,cac2]
Number of fixed variables:  9
# ============================================================================= #
# ============================================================================= #
WARNING: Implicitly replacing the Component attribute dual (type=<class
'pyomo.core.base.suffix.Suffix'>) on block 'openStarNet - Open Version of the
StartNetLite Model (Long Term Transmission Expansion Planning) - Version 1.0.0
- January 16, 2023' with a new Component (type=<class
'pyomo.core.base.suffix.Suffix'>). This is usually indicative of a modelling
error. To avoid this warning, use block.del_component() and
block.add_component().
WARNING: Implicitly replacing the Component attribute rc (type=<class
'pyomo.core.base.suffix.Suffix'>) on block 'openStarNet - Open Version of the
StartNetLite Model (Long Term Transmission Expansion Planning) - Version 1.0.0
- January 16, 2023' with a new Component (type=<class
'pyomo.core.base.suffix.Suffix'>). This is usually indicative of a modelling
error. To avoid this warning, use block.del_component() and
block.add_component().
# ==========================================================
# = Solver Results                                         =
# ==========================================================
# ----------------------------------------------------------
#   Problem Information
# ----------------------------------------------------------
Problem: 
- Name: x1
  Lower bound: 174.56853334298407
  Upper bound: 174.56853334298407
  Number of objectives: 1
  Number of constraints: 2140323
  Number of variables: 677960
  Number of binary variables: 0
  Number of integer variables: 0
  Number of continuous variables: 677960
  Number of nonzeros: 5706445
  Sense: minimize
# ----------------------------------------------------------
#   Solver Information
# ----------------------------------------------------------
Solver: 
- Status: ok
  Return code: 0
  Message: Model was solved to optimality (subject to tolerances), and an optimal solution is available.
  Termination condition: optimal
  Termination message: Model was solved to optimality (subject to tolerances), and an optimal solution is available.
  Wall time: 15.463551998138428
  Error rc: 0
  Time: 31.913458585739136
# ----------------------------------------------------------
#   Solution Information
# ----------------------------------------------------------
Solution: 
- number of solutions: 0
  number of solutions displayed: 0
Solving                               ...  39139 s
Objective function value                   174.57 M€
Objective function value                   174.56853334298407
Writing         cost summary results  ...  0 s
Writing           investment results  ...  0 s
Writing       energy balance results  ...  4 s
Writing    network operation results  ...  3 s
Writing generation operation results  ...  2 s
Writing        ESS operation results  ...  0 s
Writing             economic results  ...  0 s

 #### Academic research license - for non-commercial use only #### 

Elapsed time: 39292 seconds
